//
// The party graph of the example above:
//
//  Adam  knows {Dan,Alice,Peter,Eva},  {2,3,4,5}
//  Dan   knows {Adam,Alice,Peter},     {1,4,5}
//  Eva   knows {Alice,Peter},          {4,5}
//  Alice knows {Peter},                {5}
//  Peter knows {Alice}                 {4}
//
n = 5;
graph = 
[
  {2,3,4,5},
  {1,4,5},
  {4,5},
  {4,5},
  {4,5}
];

